<number of tasks>
50

<cycle time>
1000

<order strength>
0.597


<task times>
1 440
2 451
3 625
4 519
5 613
6 663
7 496
8 500
9 608
10 465
11 479
12 458
13 295
14 522
15 504
16 478
17 369
18 427
19 647
20 597
21 366
22 569
23 824
24 587
25 548
26 438
27 482
28 448
29 592
30 615
31 451
32 504
33 533
34 622
35 633
36 502
37 556
38 486
39 579
40 565
41 655
42 694
43 423
44 397
45 409
46 460
47 326
48 498
49 517
50 657

<precedence relations>
1,8
2,8
3,8
4,8
5,27
6,9
6,10
7,28
7,38
8,11
8,12
8,13
8,14
8,16
9,27
10,15
10,17
11,41
12,20
12,26
13,18
13,19
13,24
14,21
14,23
15,41
16,26
17,19
18,27
19,22
19,23
19,26
20,24
20,25
21,37
22,27
23,27
24,27
25,28
26,28
26,29
26,30
27,31
27,32
27,33
27,34
27,35
28,37
29,38
30,36
32,40
33,38
33,42
35,38
36,38
37,39
38,41
39,41
40,42
41,43
41,44
41,45
41,46
41,47
41,48
43,50
46,49
48,50

<end>
